unsat
(:SPACER-conj                         6
 :SPACER-inductive-gen                14
 :SPACER-inductive-gen-weaken-fail    14
 :SPACER-inductive-level              8
 :SPACER-max-depth                    9
 :SPACER-max-query-lvl                9
 :SPACER-non-local-gen                17
 :SPACER-num-active-lemmas            14
 :SPACER-num-ctp-blocked              26
 :SPACER-num-invariants               7
 :SPACER-num-is_invariant             54
 :SPACER-num-lemmas                   37
 :SPACER-num-pobs                     15
 :SPACER-num-propagations             12
 :SPACER-num-queries                  19
 :SPACER-num-reach-queries            3
 :SPACER-num-reuse-reach-facts        3
 :SPACER-subsume-pob                  1
 :SPACER-subsume-success              2
 :added-eqs                           982
 :arith-assert-diseq                  734
 :arith-assert-lower                  2760
 :arith-assert-upper                  2110
 :arith-bound-prop                    212
 :arith-conflicts                     36
 :arith-eq-adapter                    328
 :arith-fixed-eqs                     52
 :arith-num-rows                      24
 :arith-offset-eqs                    94
 :arith-pivots                        174
 :arith-row-summations                374
 :arith-tableau-max-columns           62
 :arith-tableau-max-rows              24
 :conflicts                           378
 :decisions                           1290
 :del-clause                          404
 :final-checks                        94
 :iuc_solver.num_proxies              28
 :max-memory                          31.53
 :memory                              31.08
 :minimized-lits                      126
 :mk-bool-var                         1406
 :mk-clause                           1248
 :num-allocs                          20782079
 :num-checks                          310
 :pool_solver.checks                  155
 :pool_solver.checks.sat              47
 :propagations                        12264
 :rlimit-count                        61092
 :time                                0.10
 :time.iuc_solver.get_iuc             0.01
 :time.iuc_solver.get_iuc.hyp_reduce1 0.00
 :time.iuc_solver.get_iuc.hyp_reduce2 0.01
 :time.iuc_solver.get_iuc.learn_core  0.00
 :time.pool_solver.proof              0.00
 :time.pool_solver.smt.total          0.03
 :time.pool_solver.smt.total.sat      0.01
 :time.spacer.init_rules              0.00
 :time.spacer.mbp                     0.00
 :time.spacer.solve                   0.08
 :time.spacer.solve.propagate         0.01
 :time.spacer.solve.reach             0.07
 :time.spacer.solve.reach.children    0.00
 :time.spacer.solve.reach.cluster     0.01
 :time.spacer.solve.reach.gen.global  0.01
 :time.spacer.solve.reach.gen.ind     0.00
 :time.spacer.solve.reach.is-reach    0.00)
(:max-memory   31.53
 :memory       31.08
 :num-allocs   20782079
 :rlimit-count 61092
 :time         0.10
 :total-time   0.11)
